119 48 011 1
1
624 113 1
530 114 1
459 115 1
431 116 1
480 117 1
541 118 1
552 119 1
538 108 1
484 109 1
529 110 1
634 111 1
669 112 1
497 113 1
650 114 1
508 115 1
494 116 1
569 117 1
438 118 1
458 119 1
523 108 1
488 109 1
544 110 1
419 111 1
449 112 1
566 113 1
488 114 1
460 115 1
491 116 1
534 117 1
615 118 1
564 119 1
668 108 1
495 109 1
482 110 1
500 111 1
519 112 1
457 113 1
461 114 1
529 115 1
424 116 1
444 117 1
539 118 1
579 119 1
553 108 1
717 109 1
604 110 1
511 111 1
482 112 1
1
1
1
1
1
1
1
1
1
1
1
1
1
1
1
1
1
1
1
1
1
1
1
1
1
1
1
1
1
1
1
1
1
1
1
1
1
1
1
1
1
1
1
1
1
1
1
1
1
1
1
1
1
1
1
1
1
1
1 9 537 21 522 33 667 45 552
1 10 483 22 487 34 494 46 716
1 11 528 23 543 35 481 47 603
1 12 633 24 418 36 499 48 510
1 13 668 25 448 37 518 49 481
1 2 623 14 496 26 565 38 456
1 3 529 15 649 27 487 39 460
1 4 458 16 507 28 459 40 528
1 5 430 17 493 29 490 41 423
1 6 479 18 568 30 533 42 443
1 7 540 19 437 31 614 43 538
1 8 551 20 457 32 563 44 578
